45
2 0 2
2 1 9
4 0 8
4 2 1
5 0 7
5 2 9
6 1 7
6 2 8
6 3 9
6 4 9
7 2 9
7 3 8
7 4 10
8 0 6
8 1 2
8 4 3
8 5 9
9 2 1
9 3 7
9 5 7
9 6 8
9 8 9
10 0 7
10 1 9
10 2 7
10 6 3
10 8 3
10 9 10
11 2 1
11 3 10
11 5 6
11 7 5
11 8 4
12 0 3
12 1 1
12 3 6
12 7 7
12 9 3
12 10 4
12 11 9
13 1 3
13 3 5
13 4 10
13 6 2
13 7 2
13 8 7
14 3 1
14 4 8
14 5 5
14 9 6
14 10 4
14 11 10
14 13 10
15 3 7
15 4 8
15 5 3
15 7 3
15 8 3
15 9 3
15 11 8
15 13 1
15 14 4
16 2 7
16 3 4
16 4 5
16 6 6
16 7 1
16 9 1
16 10 5
16 11 6
16 12 8
16 13 6
16 14 5
16 15 2
17 0 4
17 4 5
17 9 3
17 10 8
17 11 8
17 15 4
17 16 8
18 1 5
18 2 7
18 10 5
18 17 1
19 0 9
19 2 2
19 3 6
19 4 5
19 6 4
19 11 4
19 14 9
19 16 1
19 18 10
20 0 4
20 2 5
20 6 2
20 8 8
20 9 10
20 11 2
20 14 3
20 16 1
20 17 3
21 0 8
21 1 9
21 2 10
21 4 1
21 5 6
21 6 9
21 8 3
21 9 4
21 11 7
21 12 2
21 13 9
21 17 4
21 20 3
22 2 5
22 3 9
22 4 7
22 6 1
22 7 8
22 9 4
22 10 9
22 12 10
22 13 6
22 15 3
22 18 7
22 20 3
22 21 9
23 3 6
23 4 8
23 6 6
23 7 8
23 9 1
23 10 2
23 11 4
23 12 1
23 13 4
23 14 7
23 15 8
23 16 4
23 17 4
23 18 2
23 20 8
23 21 2
24 3 8
24 8 3
24 9 6
24 12 5
24 14 9
24 17 3
24 18 7
24 19 10
24 21 5
24 22 6
24 23 5
25 0 6
25 1 7
25 3 1
25 4 5
25 5 10
25 6 10
25 7 10
25 8 1
25 9 1
25 10 4
25 15 2
25 16 7
25 18 8
25 20 1
25 22 1
25 23 8
25 24 1
26 0 7
26 1 1
26 3 7
26 7 4
26 11 10
26 12 9
26 13 5
26 15 7
26 16 6
26 19 10
27 2 9
27 3 6
27 4 4
27 6 10
27 9 8
27 10 5
27 12 10
27 13 10
27 14 3
27 15 7
27 18 3
27 19 9
27 20 5
27 22 7
27 23 3
27 25 1
27 26 8
28 0 9
28 4 7
28 10 8
28 11 4
28 12 3
28 15 7
28 16 3
28 17 7
28 18 2
28 19 5
28 20 7
28 21 4
28 22 6
28 23 2
28 24 3
28 27 8
29 0 6
29 1 6
29 3 7
29 6 7
29 8 2
29 13 8
29 14 6
29 16 3
29 17 4
29 18 4
29 21 9
29 22 2
29 23 2
29 28 7
30 0 6
30 3 4
30 4 8
30 5 2
30 7 6
30 8 7
30 9 6
30 10 5
30 12 8
30 16 2
30 20 6
30 22 1
30 23 2
30 24 10
30 28 4
31 0 4
31 1 1
31 4 2
31 5 2
31 6 2
31 12 4
31 13 2
31 14 8
31 15 6
31 16 6
31 23 2
31 25 2
31 26 8
31 27 5
31 28 7
32 2 6
32 4 7
32 5 1
32 7 6
32 8 9
32 9 9
32 10 6
32 11 10
32 12 8
32 17 5
32 18 2
32 19 3
32 20 9
32 22 8
32 26 1
32 28 4
32 29 8
33 0 3
33 1 3
33 3 10
33 6 10
33 7 8
33 9 4
33 13 8
33 14 8
33 16 7
33 17 3
33 18 7
33 20 10
33 22 6
33 24 9
33 26 8
33 27 5
33 30 7
33 31 3
33 32 10
34 2 7
34 7 7
34 8 8
34 9 5
34 10 4
34 18 8
34 19 8
34 21 8
34 24 1
34 25 10
34 30 6
34 31 9
35 1 10
35 6 3
35 7 2
35 9 10
35 12 1
35 14 4
35 19 5
35 22 9
35 23 1
35 27 2
35 28 5
35 31 9
35 34 3
36 0 10
36 4 7
36 5 7
36 6 8
36 8 10
36 11 5
36 15 9
36 16 8
36 17 5
36 18 3
36 19 4
36 20 2
36 23 9
36 24 7
36 25 6
36 26 6
36 27 4
36 28 8
36 29 1
36 30 5
36 32 3
36 33 9
36 35 6
37 0 6
37 1 3
37 4 8
37 5 8
37 6 4
37 7 9
37 8 10
37 10 8
37 12 10
37 13 4
37 14 7
37 15 1
37 16 9
37 20 9
37 23 3
37 26 8
37 30 6
37 31 5
37 34 7
37 36 5
38 2 10
38 3 8
38 4 10
38 6 5
38 7 2
38 8 1
38 9 6
38 10 6
38 12 10
38 14 9
38 16 3
38 17 1
38 18 5
38 20 7
38 21 1
38 22 1
38 23 4
38 24 3
38 25 2
38 28 7
38 33 6
38 34 10
38 36 5
39 2 8
39 4 7
39 5 7
39 6 4
39 10 4
39 11 3
39 12 6
39 14 3
39 15 2
39 16 3
39 17 10
39 19 9
39 21 2
39 22 1
39 23 7
39 24 2
39 26 5
39 27 8
39 29 9
39 30 4
39 31 10
40 3 5
40 7 3
40 10 4
40 12 7
40 16 4
40 18 9
40 19 10
40 21 10
40 24 2
40 28 8
40 30 8
40 36 5
41 3 5
41 4 10
41 6 1
41 7 2
41 10 4
41 11 3
41 13 4
41 21 9
41 22 9
41 23 2
41 25 9
41 26 3
41 28 8
41 29 4
41 31 3
41 35 2
41 36 1
41 38 6
41 39 6
41 40 3
42 0 8
42 1 3
42 4 4
42 5 10
42 9 10
42 12 8
42 13 4
42 17 8
42 18 6
42 19 5
42 22 4
42 23 3
42 24 3
42 26 10
42 27 3
42 29 9
42 30 2
42 32 3
42 33 4
42 34 2
42 36 4
42 37 10
42 38 8
43 0 8
43 1 1
43 5 2
43 6 4
43 9 2
43 11 1
43 12 4
43 13 5
43 14 1
43 16 9
43 18 4
43 19 2
43 21 10
43 23 9
43 25 6
43 28 7
43 30 5
43 31 5
43 32 8
43 35 5
43 36 10
43 37 3
43 38 6
43 39 3
43 40 6
44 1 3
44 2 7
44 8 5
44 9 4
44 10 6
44 11 10
44 13 1
44 15 5
44 17 8
44 19 9
44 20 10
44 22 2
44 24 4
44 25 3
44 29 7
44 30 8
44 31 10
44 34 10
44 35 1
44 38 1
44 39 10
44 43 10
